    1C
    1UUSER                                                              
    1UDATE              02.january.2014                                 
    1UTIME              01:02:41                                        
    1UHOST                                                              
    1UPGM               CalculiX                                        
    1UDIR                                                               
    1UDBN                                                               
    2C                            98                                     1
 -1         1 0.00000E+00 0.00000E+00 0.00000E+00
 -1         2 1.00000E+00 0.00000E+00 0.00000E+00
 -1         3 1.00000E+00 1.00000E+00 0.00000E+00
 -1         4 0.00000E+00 1.00000E+00 0.00000E+00
 -1         5 0.00000E+00 0.00000E+00 1.00000E+00
 -1         6 1.00000E+00 0.00000E+00 1.00000E+00
 -1         7 1.00000E+00 1.00000E+00 1.00000E+00
 -1         8 0.00000E+00 1.00000E+00 1.00000E+00
 -1         9 2.50000E-01 0.00000E+00 0.00000E+00
 -1        10 5.00000E-01 0.00000E+00 0.00000E+00
 -1        11 7.50000E-01 0.00000E+00 0.00000E+00
 -1        12 1.00000E+00 2.50000E-01 0.00000E+00
 -1        13 1.00000E+00 5.00000E-01 0.00000E+00
 -1        14 1.00000E+00 7.50000E-01 0.00000E+00
 -1        15 7.50000E-01 1.00000E+00 0.00000E+00
 -1        16 5.00000E-01 1.00000E+00 0.00000E+00
 -1        17 2.50000E-01 1.00000E+00 0.00000E+00
 -1        18 0.00000E+00 7.50000E-01 0.00000E+00
 -1        19 0.00000E+00 5.00000E-01 0.00000E+00
 -1        20 0.00000E+00 2.50000E-01 0.00000E+00
 -1        21 2.50000E-01 0.00000E+00 1.00000E+00
 -1        22 5.00000E-01 0.00000E+00 1.00000E+00
 -1        23 7.50000E-01 0.00000E+00 1.00000E+00
 -1        24 1.00000E+00 2.50000E-01 1.00000E+00
 -1        25 1.00000E+00 5.00000E-01 1.00000E+00
 -1        26 1.00000E+00 7.50000E-01 1.00000E+00
 -1        27 7.50000E-01 1.00000E+00 1.00000E+00
 -1        28 5.00000E-01 1.00000E+00 1.00000E+00
 -1        29 2.50000E-01 1.00000E+00 1.00000E+00
 -1        30 0.00000E+00 7.50000E-01 1.00000E+00
 -1        31 0.00000E+00 5.00000E-01 1.00000E+00
 -1        32 0.00000E+00 2.50000E-01 1.00000E+00
 -1        33 1.00000E+00 0.00000E+00 2.50000E-01
 -1        34 1.00000E+00 0.00000E+00 5.00000E-01
 -1        35 1.00000E+00 0.00000E+00 7.50000E-01
 -1        36 0.00000E+00 0.00000E+00 7.50000E-01
 -1        37 0.00000E+00 0.00000E+00 5.00000E-01
 -1        38 0.00000E+00 0.00000E+00 2.50000E-01
 -1        39 1.00000E+00 1.00000E+00 2.50000E-01
 -1        40 1.00000E+00 1.00000E+00 5.00000E-01
 -1        41 1.00000E+00 1.00000E+00 7.50000E-01
 -1        42 0.00000E+00 1.00000E+00 2.50000E-01
 -1        43 0.00000E+00 1.00000E+00 5.00000E-01
 -1        44 0.00000E+00 1.00000E+00 7.50000E-01
 -1        45 5.00000E-01 2.50000E-01 0.00000E+00
 -1        46 2.50000E-01 5.00000E-01 0.00000E+00
 -1        47 5.00000E-01 5.00000E-01 0.00000E+00
 -1        48 7.50000E-01 5.00000E-01 0.00000E+00
 -1        49 5.00000E-01 7.50000E-01 0.00000E+00
 -1        50 5.00000E-01 2.50000E-01 1.00000E+00
 -1        51 2.50000E-01 5.00000E-01 1.00000E+00
 -1        52 5.00000E-01 5.00000E-01 1.00000E+00
 -1        53 7.50000E-01 5.00000E-01 1.00000E+00
 -1        54 5.00000E-01 7.50000E-01 1.00000E+00
 -1        55 5.00000E-01 0.00000E+00 2.50000E-01
 -1        56 2.50000E-01 0.00000E+00 5.00000E-01
 -1        57 5.00000E-01 0.00000E+00 5.00000E-01
 -1        58 7.50000E-01 0.00000E+00 5.00000E-01
 -1        59 5.00000E-01 0.00000E+00 7.50000E-01
 -1        60 1.00000E+00 5.00000E-01 2.50000E-01
 -1        61 1.00000E+00 2.50000E-01 5.00000E-01
 -1        62 1.00000E+00 5.00000E-01 5.00000E-01
 -1        63 1.00000E+00 7.50000E-01 5.00000E-01
 -1        64 1.00000E+00 5.00000E-01 7.50000E-01
 -1        65 5.00000E-01 1.00000E+00 2.50000E-01
 -1        66 7.50000E-01 1.00000E+00 5.00000E-01
 -1        67 5.00000E-01 1.00000E+00 5.00000E-01
 -1        68 2.50000E-01 1.00000E+00 5.00000E-01
 -1        69 5.00000E-01 1.00000E+00 7.50000E-01
 -1        70 0.00000E+00 5.00000E-01 2.50000E-01
 -1        71 0.00000E+00 7.50000E-01 5.00000E-01
 -1        72 0.00000E+00 5.00000E-01 5.00000E-01
 -1        73 0.00000E+00 2.50000E-01 5.00000E-01
 -1        74 0.00000E+00 5.00000E-01 7.50000E-01
 -1        75 5.00000E-01 5.00000E-01 2.50000E-01
 -1        76 5.00000E-01 2.50000E-01 5.00000E-01
 -1        77 2.50000E-01 5.00000E-01 5.00000E-01
 -1        78 5.00000E-01 5.00000E-01 5.00000E-01
 -1        79 7.50000E-01 5.00000E-01 5.00000E-01
 -1        80 5.00000E-01 7.50000E-01 5.00000E-01
 -1        81 5.00000E-01 5.00000E-01 7.50000E-01
 -1       156 2.50000E-01 0.00000E+00 5.00000E-01
 -1       157 5.00000E-01 0.00000E+00 5.00000E-01
 -1       158 7.50000E-01 0.00000E+00 5.00000E-01
 -1       161 1.00000E+00 2.50000E-01 5.00000E-01
 -1       162 1.00000E+00 5.00000E-01 5.00000E-01
 -1       163 1.00000E+00 7.50000E-01 5.00000E-01
 -1       166 7.50000E-01 1.00000E+00 5.00000E-01
 -1       167 5.00000E-01 1.00000E+00 5.00000E-01
 -1       168 2.50000E-01 1.00000E+00 5.00000E-01
 -1       171 0.00000E+00 7.50000E-01 5.00000E-01
 -1       172 0.00000E+00 5.00000E-01 5.00000E-01
 -1       173 0.00000E+00 2.50000E-01 5.00000E-01
 -1       176 5.00000E-01 2.50000E-01 5.00000E-01
 -1       177 2.50000E-01 5.00000E-01 5.00000E-01
 -1       178 5.00000E-01 5.00000E-01 5.00000E-01
 -1       179 7.50000E-01 5.00000E-01 5.00000E-01
 -1       180 5.00000E-01 7.50000E-01 5.00000E-01
 -3
    3C                             8                                     1
 -1         1    4    0EL   
 -2         1        10        47        19        37        57        78        72         9        45
 -2        46        20        38        55        75        70        56        76        77        73
 -1         2    4    0EL   
 -2        10         2        13        47        57        34        62        78        11        12
 -2        48        45        55        33        60        75        58        61        79        76
 -1         3    4    0EL   
 -2        19        47        16         4        72        78        67        43        46        49
 -2        17        18        70        75        65        42        77        80        68        71
 -1         4    4    0EL   
 -2        47        13         3        16        78        62        40        67        48        14
 -2        15        49        75        60        39        65        79        63        66        80
 -1         5    4    0EL   
 -2        37       157       178       172         5        22        52        31       156       176
 -2       177       173        36        59        81        74        21        50        51        32
 -1         6    4    0EL   
 -2       157        34       162       178        22         6        25        52       158       161
 -2       179       176        59        35        64        81        23        24        53        50
 -1         7    4    0EL   
 -2       172       178       167        43        31        52        28         8       177       180
 -2       168       171        74        81        69        44        51        54        29        30
 -1         8    4    0EL   
 -2       178       162        40       167        52        25         7        28       179       163
 -2       166       180        81        64        41        69        53        26        27        54
 -3
    1PSTEP                         1           1           1          
  100CL  101 1.000000000          98                     0    1           1
 -4  STRESS      6    1
 -5  SXX         1    4    1    1
 -5  SYY         1    4    2    2
 -5  SZZ         1    4    3    3
 -5  SXY         1    4    1    2
 -5  SYZ         1    4    2    3
 -5  SZX         1    4    3    1
 -1         1-3.61128E+00-3.61128E+00 9.10593E+00 5.33457E+00 1.45466E+01 1.45466E+01
 -1         2-5.38062E+00-5.38062E+00 1.53874E+02 7.02585E+00 4.18312E+01-4.18312E+01
 -1         3-3.61128E+00-3.61128E+00 9.10593E+00 5.33457E+00-1.45466E+01-1.45466E+01
 -1         4-5.38062E+00-5.38062E+00 1.53874E+02 7.02585E+00-4.18312E+01 4.18312E+01
 -1         5-1.11071E+01-1.11071E+01 7.31325E+01-3.41905E+00-2.83949E+01-2.83949E+01
 -1         6-9.19738E+00-9.19738E+00 7.71259E+01 2.68564E+00-2.69915E+01 2.69915E+01
 -1         7-1.11071E+01-1.11071E+01 7.31325E+01-3.41905E+00 2.83949E+01 2.83949E+01
 -1         8-9.19738E+00-9.19738E+00 7.71259E+01 2.68564E+00 2.69915E+01-2.69915E+01
 -1         9-6.42165E+00 6.73262E+00 2.85381E+00 1.28879E-01 8.21717E+00-1.27810E+01
 -1        10-1.78469E+01 6.08606E+00-4.06954E+01 5.21232E+00-7.08807E+00-7.67713E+00
 -1        11-1.59212E+01-5.14251E+00 3.79406E+01 1.12636E+01 1.28837E+01-8.53848E+00
 -1        12-5.14251E+00-1.59212E+01 3.79406E+01 1.12636E+01 8.53848E+00-1.28837E+01
 -1        13 6.08606E+00-1.78469E+01-4.06954E+01 5.21232E+00 7.67713E+00 7.08807E+00
 -1        14 6.73262E+00-6.42165E+00 2.85381E+00 1.28879E-01 1.27810E+01-8.21717E+00
 -1        15-6.42165E+00 6.73262E+00 2.85381E+00 1.28879E-01-8.21717E+00 1.27810E+01
 -1        16-1.78469E+01 6.08606E+00-4.06954E+01 5.21232E+00 7.08807E+00 7.67713E+00
 -1        17-1.59212E+01-5.14251E+00 3.79406E+01 1.12636E+01-1.28837E+01 8.53848E+00
 -1        18-5.14251E+00-1.59212E+01 3.79406E+01 1.12636E+01-8.53848E+00 1.28837E+01
 -1        19 6.08606E+00-1.78469E+01-4.06954E+01 5.21232E+00-7.67713E+00-7.08807E+00
 -1        20 6.73262E+00-6.42165E+00 2.85381E+00 1.28879E-01-1.27810E+01 8.21717E+00
 -1        21-1.20153E+01-1.00008E+00 1.95351E+01-4.83028E+00-1.18123E+01 2.32817E+00
 -1        22-1.26031E+01 8.56186E+00-3.59249E+01-4.68819E-01 5.00216E+00 1.24146E-01
 -1        23-1.07400E+01-5.90287E-01 1.96692E+01 3.99476E+00-1.08787E+01-2.90572E+00
 -1        24-5.90287E-01-1.07400E+01 1.96692E+01 3.99476E+00 2.90572E+00 1.08787E+01
 -1        25 8.56186E+00-1.26031E+01-3.59249E+01-4.68819E-01-1.24146E-01-5.00216E+00
 -1        26-1.00008E+00-1.20153E+01 1.95351E+01-4.83028E+00-2.32817E+00 1.18123E+01
 -1        27-1.20153E+01-1.00008E+00 1.95351E+01-4.83028E+00 1.18123E+01-2.32817E+00
 -1        28-1.26031E+01 8.56186E+00-3.59249E+01-4.68819E-01-5.00216E+00-1.24146E-01
 -1        29-1.07400E+01-5.90287E-01 1.96692E+01 3.99476E+00 1.08787E+01 2.90572E+00
 -1        30-5.90287E-01-1.07400E+01 1.96692E+01 3.99476E+00-2.90572E+00-1.08787E+01
 -1        31 8.56186E+00-1.26031E+01-3.59249E+01-4.68819E-01 1.24146E-01 5.00216E+00
 -1        32-1.00008E+00-1.20153E+01 1.95351E+01-4.83028E+00 2.32817E+00-1.18123E+01
 -1        33 4.04231E+00 4.04231E+00 9.46916E+01 3.22262E+00 2.56493E+01-2.56493E+01
 -1        34 1.31272E+01 1.31272E+01 3.94585E+01-3.31683E+00 6.86993E+00-6.86993E+00
 -1        35 1.79593E+00 1.79593E+00 6.02668E+01-1.68370E+00-1.13595E+01 1.13595E+01
 -1        36 1.72615E+00 1.72615E+00 5.46134E+01 2.37474E+00-1.22259E+01-1.22259E+01
 -1        37 3.10674E+00 3.10674E+00 2.29142E+00 3.26938E+00-1.34269E-02-1.34269E-02
 -1        38-5.97858E+00-5.97858E+00-1.12027E+01 1.85240E+00 5.28829E+00 5.28829E+00
 -1        39-5.97858E+00-5.97858E+00-1.12027E+01 1.85240E+00-5.28829E+00-5.28829E+00
 -1        40 3.10674E+00 3.10674E+00 2.29142E+00 3.26938E+00 1.34269E-02 1.34269E-02
 -1        41 1.72615E+00 1.72615E+00 5.46134E+01 2.37474E+00 1.22259E+01 1.22259E+01
 -1        42 4.04231E+00 4.04231E+00 9.46916E+01 3.22262E+00-2.56493E+01 2.56493E+01
 -1        43 1.31272E+01 1.31272E+01 3.94585E+01-3.31683E+00-6.86993E+00 6.86993E+00
 -1        44 1.79593E+00 1.79593E+00 6.02668E+01-1.68370E+00 1.13595E+01-1.13595E+01
 -1        45-1.68941E+01-4.92758E+00-1.23976E+01 1.75738E+01-7.77593E-01 1.28464E+00
 -1        46-4.92758E+00-1.68941E+01-1.23976E+01 1.75738E+01 1.28464E+00-7.77593E-01
 -1        47-1.59412E+01-1.59412E+01 1.59003E+01 2.99353E+01-6.42153E-13-5.88418E-13
 -1        48-4.92758E+00-1.68941E+01-1.23976E+01 1.75738E+01-1.28464E+00 7.77593E-01
 -1        49-1.68941E+01-4.92758E+00-1.23976E+01 1.75738E+01 7.77593E-01-1.28464E+00
 -1        50-1.84843E+01-7.90183E+00-1.16024E+01-9.00162E-01-1.30832E+00 2.31258E-02
 -1        51-7.90183E+00-1.84843E+01-1.16024E+01-9.00162E-01 2.31258E-02-1.30832E+00
 -1        52-2.43655E+01-2.43655E+01 1.27200E+01-1.33150E+00-7.46070E-14 1.07847E-12
 -1        53-7.90183E+00-1.84843E+01-1.16024E+01-9.00162E-01-2.31258E-02 1.30832E+00
 -1        54-1.84843E+01-7.90183E+00-1.16024E+01-9.00162E-01 1.30832E+00-2.31258E-02
 -1        55-2.81094E-01 1.73058E-01-1.86391E+01-2.68454E+00-9.57255E+00-4.87696E+00
 -1        56 1.24986E+00-2.95843E+00 1.92016E+00-1.74904E+00-9.56709E+00 1.09719E+01
 -1        57 1.72847E+01-5.73994E+00 3.41718E+00-1.05814E+01-1.20570E+01-2.07680E+00
 -1        58 1.85945E+01-2.21835E-01 3.49605E+00-9.93756E+00 2.58686E-01-1.97674E+01
 -1        59-2.23338E+00-9.65961E-01-3.59249E+01-1.98484E-01 5.89645E+00-2.69029E-01
 -1        60 1.73058E-01-2.81094E-01-1.86391E+01-2.68454E+00 4.87696E+00 9.57255E+00
 -1        61-2.21835E-01 1.85945E+01 3.49605E+00-9.93756E+00 1.97674E+01-2.58686E-01
 -1        62-5.73994E+00 1.72847E+01 3.41718E+00-1.05814E+01 2.07680E+00 1.20570E+01
 -1        63-2.95843E+00 1.24986E+00 1.92016E+00-1.74904E+00-1.09719E+01 9.56709E+00
 -1        64-9.65961E-01-2.23338E+00-3.59249E+01-1.98484E-01 2.69029E-01-5.89645E+00
 -1        65-2.81094E-01 1.73058E-01-1.86391E+01-2.68454E+00 9.57255E+00 4.87696E+00
 -1        66 1.24986E+00-2.95843E+00 1.92016E+00-1.74904E+00 9.56709E+00-1.09719E+01
 -1        67 1.72847E+01-5.73994E+00 3.41718E+00-1.05814E+01 1.20570E+01 2.07680E+00
 -1        68 1.85945E+01-2.21835E-01 3.49605E+00-9.93756E+00-2.58686E-01 1.97674E+01
 -1        69-2.23338E+00-9.65961E-01-3.59249E+01-1.98484E-01-5.89645E+00 2.69029E-01
 -1        70 1.73058E-01-2.81094E-01-1.86391E+01-2.68454E+00-4.87696E+00-9.57255E+00
 -1        71-2.21835E-01 1.85945E+01 3.49605E+00-9.93756E+00-1.97674E+01 2.58686E-01
 -1        72-5.73994E+00 1.72847E+01 3.41718E+00-1.05814E+01-2.07680E+00-1.20570E+01
 -1        73-2.95843E+00 1.24986E+00 1.92016E+00-1.74904E+00 1.09719E+01-9.56709E+00
 -1        74-9.65961E-01-2.23338E+00-3.59249E+01-1.98484E-01-2.69029E-01 5.89645E+00
 -1        75-5.13985E-01-5.13985E-01 1.15331E+01 2.53751E+00-1.74971E-13-3.81029E-13
 -1        76 1.60990E+01 4.58665E+00 5.29157E+00-1.77209E+01-6.78393E-01-1.95667E+00
 -1        77 4.58665E+00 1.60990E+01 5.29157E+00-1.77209E+01-1.95667E+00-6.78393E-01
 -1        78 1.49132E+01 1.49132E+01 7.16596E+00-2.48603E+01 2.92655E-13-1.73195E-13
 -1        79 4.58665E+00 1.60990E+01 5.29157E+00-1.77209E+01 1.95667E+00 6.78393E-01
 -1        80 1.60990E+01 4.58665E+00 5.29157E+00-1.77209E+01 6.78393E-01 1.95667E+00
 -1        81 3.02846E+00 3.02846E+00 3.04092E+01 3.45518E-01 9.68114E-14-1.17684E-13
 -1       156 1.16214E+01 2.27115E+00 1.13586E+00 5.96704E+00 5.59622E+00-8.92662E+00
 -1       157 8.13634E+00-1.04938E+01-3.59249E+01 7.18508E-02 6.79074E+00-6.62203E-01
 -1       158 1.01892E+01 9.09367E-01 2.69014E+00-4.83745E+00 5.30240E+00 8.09970E+00
 -1       161 9.09367E-01 1.01892E+01 2.69014E+00-4.83745E+00-8.09970E+00-5.30240E+00
 -1       162-1.04938E+01 8.13634E+00-3.59249E+01 7.18508E-02 6.62203E-01-6.79074E+00
 -1       163 2.27115E+00 1.16214E+01 1.13586E+00 5.96704E+00 8.92662E+00-5.59622E+00
 -1       166 1.16214E+01 2.27115E+00 1.13586E+00 5.96704E+00-5.59622E+00 8.92662E+00
 -1       167 8.13634E+00-1.04938E+01-3.59249E+01 7.18508E-02-6.79074E+00 6.62203E-01
 -1       168 1.01892E+01 9.09367E-01 2.69014E+00-4.83745E+00-5.30240E+00-8.09970E+00
 -1       171 9.09367E-01 1.01892E+01 2.69014E+00-4.83745E+00 8.09970E+00 5.30240E+00
 -1       172-1.04938E+01 8.13634E+00-3.59249E+01 7.18508E-02-6.62203E-01 6.79074E+00
 -1       173 2.27115E+00 1.16214E+01 1.13586E+00 5.96704E+00-8.92662E+00 5.59622E+00
 -1       176 1.92794E+01 9.96432E+00 6.08668E+00 1.04720E+00-4.58790E+00-2.48081E-02
 -1       177 9.96432E+00 1.92794E+01 6.08668E+00 1.04720E+00-2.48081E-02-4.58790E+00
 -1       178 3.04224E+01 3.04224E+01 4.80983E+01 2.02254E+00 2.66898E-13-1.31406E-12
 -1       179 9.96432E+00 1.92794E+01 6.08668E+00 1.04720E+00 2.48081E-02 4.58790E+00
 -1       180 1.92794E+01 9.96432E+00 6.08668E+00 1.04720E+00 4.58790E+00 2.48081E-02
 -3
 9999
